

******************************************************************************
This program contains Ipopt, a library for large-scale nonlinear optimization.
 Ipopt is released as open source code under the Eclipse Public License (EPL).
         For more information visit http://projects.coin-or.org/Ipopt
******************************************************************************

This is Ipopt version 3.12.8, running with linear solver mumps.
NOTE: Other linear solvers might be more efficient (see Ipopt documentation).

Number of nonzeros in equality constraint Jacobian...:        0
Number of nonzeros in inequality constraint Jacobian.:        3
Number of nonzeros in Lagrangian Hessian.............:        4

Total number of variables............................:        3
                     variables with only lower bounds:        0
                variables with lower and upper bounds:        3
                     variables with only upper bounds:        0
Total number of equality constraints.................:        0
Total number of inequality constraints...............:        1
        inequality constraints with only lower bounds:        0
   inequality constraints with lower and upper bounds:        0
        inequality constraints with only upper bounds:        1

iter    objective    inf_pr   inf_du lg(mu)  ||d||  lg(rg) alpha_du alpha_pr  ls
   0  1.1549921e+02 0.00e+00 1.00e+01  -1.0 0.00e+00    -  0.00e+00 0.00e+00   0
   1  1.1436589e+02 0.00e+00 1.02e+01  -1.0 1.02e-01   2.0 9.90e-01 1.00e+00f  1
   2  1.1085160e+02 0.00e+00 1.11e+01  -1.0 3.32e-01   1.5 1.00e+00 1.00e+00f  1
   3  9.7734530e+01 0.00e+00 1.37e+01  -1.0 1.27e+00   1.0 7.25e-01 1.00e+00f  1
   4  6.1401559e+01 4.82e+00 1.88e+01  -1.0 7.80e+00   0.6 8.31e-01 4.18e-01f  1
   5  6.0375056e+01 4.79e+00 1.67e+01  -1.0 3.80e+01   0.1 4.18e-02 1.66e-03f  1
   6  3.8924708e+01 0.00e+00 1.53e+01  -1.0 9.31e+00  -0.4 9.68e-01 3.55e-01f  1
   7  9.6597559e+00 1.24e-02 2.50e+01  -1.0 9.63e+00   0.0 3.44e-01 3.74e-01f  1
   8  3.6120098e+01 0.00e+00 6.76e+00  -1.0 5.52e+00   0.5 5.28e-01 5.00e-01h  2
   9  2.9315227e+00 6.27e+00 8.04e+01  -1.0 8.18e+00   0.9 1.00e+00 5.01e-01f  1
iter    objective    inf_pr   inf_du lg(mu)  ||d||  lg(rg) alpha_du alpha_pr  ls
  10  9.4079604e+00 1.53e-01 5.40e+01  -1.0 6.68e+00   0.4 1.00e+00 2.50e-01h  3
  11  9.5629466e+00 7.17e-02 2.56e+02  -1.0 7.56e+00   0.8 1.00e+00 3.17e-03h  9
  12  9.5818884e+00 6.19e-02 4.33e+02  -1.0 1.69e+02   0.4 5.03e-02 5.18e-05h 12
  13  9.5915852e+00 5.69e-02 3.20e+02  -1.0 8.19e+00   0.8 1.00e+00 1.82e-04h 13
  14  9.5927974e+00 5.63e-02 1.83e+02  -1.0 6.25e+00   1.2 4.52e-01 2.99e-05h 16
  15  2.2119667e+01 0.00e+00 3.07e+02  -1.0 9.36e+00   0.7 1.00e+00 1.75e-01h  3
  16  5.0736566e+01 1.81e+00 6.05e+03  -1.0 1.65e+01   2.1 2.45e-02 3.20e-01h  2
  17  5.0386362e+01 1.60e+00 5.88e+02  -1.0 1.79e+01    -  1.00e+00 9.03e-01h  1
  18  4.9494072e+01 1.16e+00 3.87e+02  -1.0 4.72e-01    -  4.19e-01 3.42e-01f  1
  19  4.6081282e+01 0.00e+00 1.19e+01  -1.0 3.69e-01    -  3.05e-01 1.00e+00f  1
iter    objective    inf_pr   inf_du lg(mu)  ||d||  lg(rg) alpha_du alpha_pr  ls
  20  3.5264785e+01 0.00e+00 1.13e+01  -1.0 4.86e+01    -  2.94e-02 4.85e-02f  1
  21  1.3202986e-01 1.64e+01 2.94e+00  -1.0 2.44e+01    -  2.83e-01 4.62e-01f  1
  22  5.8343322e-01 1.15e+01 1.16e+00  -1.0 2.21e+01    -  7.39e-01 6.27e-01h  1
  23  1.4300231e+00 0.00e+00 6.26e-01  -1.0 4.73e+00    -  6.95e-01 1.00e+00f  1
  24  9.3725771e-01 2.46e-01 1.91e-02  -1.0 4.99e+00    -  1.00e+00 9.66e-01h  1
  25  9.8207590e-01 0.00e+00 3.30e-03  -1.7 2.99e-01    -  1.00e+00 1.00e+00h  1
  26  9.5347684e-01 6.36e-04 3.50e-04  -3.8 3.51e-01    -  1.00e+00 9.90e-01h  1
  27  9.5353063e-01 0.00e+00 1.04e-07  -5.7 4.37e-04    -  1.00e+00 1.00e+00h  1
  28  9.5352882e-01 0.00e+00 9.36e-13  -8.6 2.24e-05    -  1.00e+00 1.00e+00h  1

Number of Iterations....: 28

                                   (scaled)                 (unscaled)
Objective...............:   9.5352881987161220e-01    9.5352881987161220e-01
Dual infeasibility......:   9.3555326183415864e-13    9.3555326183415864e-13
Constraint violation....:   0.0000000000000000e+00    0.0000000000000000e+00
Complementarity.........:   2.5197381288866165e-09    2.5197381288866165e-09
Overall NLP error.......:   2.5197381288866165e-09    2.5197381288866165e-09


Number of objective function evaluations             = 91
Number of objective gradient evaluations             = 29
Number of equality constraint evaluations            = 0
Number of inequality constraint evaluations          = 91
Number of equality constraint Jacobian evaluations   = 0
Number of inequality constraint Jacobian evaluations = 29
Number of Lagrangian Hessian evaluations             = 28
Total CPU secs in IPOPT (w/o function evaluations)   =      0.007
Total CPU secs in NLP function evaluations           =      0.000

EXIT: Optimal Solution Found.
 
Ipopt 3.12.8: Optimal Solution Found
